p tw 135 142
1 2
2 48
3 14
4 5
5 6
6 7
7 8
8 9
9 10
10 11
11 12
12 13
13 15
14 25
15 16
16 17
17 18
18 19
19 20
20 21
21 22
22 23
23 24
24 26
24 27
25 36
26 27
26 29
27 28
28 40
29 30
30 31
31 32
32 33
33 34
34 35
35 37
36 42
37 38
38 39
39 40
40 41
42 43
43 44
44 45
45 46
46 47
47 49
48 59
49 50
49 54
50 51
51 52
52 53
53 54
53 68
54 55
55 56
56 57
57 58
58 60
59 70
60 61
61 62
62 63
63 64
64 65
65 66
66 67
67 40
68 69
69 71
70 81
71 72
72 73
73 74
74 75
75 76
76 77
77 78
78 79
79 80
80 82
81 92
81 125
82 83
83 84
84 85
84 88
85 86
86 87
87 80
88 89
89 90
90 91
91 93
92 103
93 94
94 95
95 96
95 109
96 97
97 98
98 99
99 100
100 101
101 102
102 104
103 114
103 19
104 105
105 106
106 107
107 108
108 40
109 110
110 111
111 112
112 113
113 115
114 37
115 116
116 117
117 118
118 119
119 120
120 121
121 122
122 123
123 124
124 126
125 3
126 127
127 128
128 129
129 130
130 131
131 132
132 133
133 134
134 135
135 4
